
  32    4
  10   10   10   10

   0   0   0   0   0   3 2 3 4 
   1   1   0   1   1   1 5 
   8   6   1   3   0   1 5 
   7   4   4   0   3   1 5 
   5   5   5   0   3   2 10 6 
   6   3   0   1   2   2 9 7 
   5   4   5   8   0   3 14 12 8 
   8   7   4   0   4   4 19 17 15 11 
   7   8   4   6   0   3 19 15 13 
   2   5   0   5   4   3 19 16 15 
   9   4   6   4   0   2 18 13 
  10   7   5   0   8   5 22 20 19 18 17 
   6   4   3   4   0   4 26 24 21 16 
   2   0   3   4   4   3 26 21 16 
   2   2   3   8   0   4 22 21 20 18 
   6   0   7   2   7   3 23 22 20 
   9   0   3   2   2   3 26 25 21 
   1   0   3   2   2   4 30 29 27 26 
  10   2   8   0   6   4 30 29 27 26 
   5   2   4   1   0   3 31 29 25 
   5   0   3   5   8   3 30 29 27 
   8   2   4   0   4   3 30 29 27 
   7   2   0   6   1   3 30 29 28 
   8   3   3   5   0   3 31 29 28 
   1   5   0   4   2   2 30 27 
   4   6   3   0   4   2 31 28 
   2   3   1   0   5   1 28 
   6   4   7   4   0   1 32
   8   3   4   5   0   1 32
   2   4   4   4   0   1 32
   9   0   3   4   6   1 32
   0   0   0   0   0   0 
